NAME : rnd81_20.tsp
TYPE : TSP
DIMENSION : 20
EDGE_WEIGHT_TYPE : EUC_2D
NODE_COORD_SECTION
0 292 327
1 12 623
2 521 545
3 991 697
4 777 929
5 439 703
6 866 762
7 361 108
8 84 846
9 553 521
10 72 650
11 26 183
12 266 886
13 918 565
14 611 514
15 998 178
16 397 502
17 719 282
18 657 993
19 748 638
